asp/input/in_50_25_6_4.lp
#const n = 50.
#const k = 25.
#const h = 6.
tile(1,15,24).
tile(2,3,17).
tile(3,18,23).
tile(4,13,23).
tile(5,1,25).
tile(6,5,17).
tile(7,2,16).
tile(8,12,17).
tile(9,7,20).
tile(10,17,7).
tile(11,16,2).
tile(12,8,7).
tile(13,17,16).
tile(14,22,14).
tile(15,21,11).
tile(16,8,22).
tile(17,17,7).
tile(18,14,15).
tile(19,1,13).
tile(20,4,4).
tile(21,1,4).
tile(22,18,11).
tile(23,7,23).
tile(24,8,5).
tile(25,22,8).
tile(26,5,3).
tile(27,16,3).
tile(28,17,13).
tile(29,23,22).
tile(30,16,14).
tile(31,8,17).
tile(32,11,22).
tile(33,17,13).
tile(34,25,14).
tile(35,16,23).
tile(36,8,12).
tile(37,10,8).
tile(38,22,12).
tile(39,19,12).
tile(40,16,6).
tile(41,22,17).
tile(42,16,20).
tile(43,21,19).
tile(44,15,18).
tile(45,1,14).
tile(46,23,18).
tile(47,22,7).
tile(48,22,10).
tile(49,14,16).
tile(50,13,24).
