minizinc/input/in_50_25_6_4.dzn
n = 50;
k = 25;
h = 6;
tiles = array2d(1..n, 1..2,
[ 15,24
, 3,17
, 18,23
, 13,23
, 1,25
, 5,17
, 2,16
, 12,17
, 7,20
, 17,7
, 16,2
, 8,7
, 17,16
, 22,14
, 21,11
, 8,22
, 17,7
, 14,15
, 1,13
, 4,4
, 1,4
, 18,11
, 7,23
, 8,5
, 22,8
, 5,3
, 16,3
, 17,13
, 23,22
, 16,14
, 8,17
, 11,22
, 17,13
, 25,14
, 16,23
, 8,12
, 10,8
, 22,12
, 19,12
, 16,6
, 22,17
, 16,20
, 21,19
, 15,18
, 1,14
, 23,18
, 22,7
, 22,10
, 14,16
, 13,24
]);